
Gurobi 13.0.1 (linux64) logging started Sat Mar 21 11:24:01 2026

Set parameter LogFile to value "logs/50B_6F_deterministic_2026-03-21_11h23m47s.log"
Gurobi Optimizer version 13.0.1 build v13.0.1rc0 (linux64 - "Linux Mint 22")

CPU model: 12th Gen Intel(R) Core(TM) i7-12700, instruction set [SSE2|AVX|AVX2]
Thread count: 20 physical cores, 20 logical processors, using up to 20 threads

Non-default parameters:
TimeLimit  3600
SoftMemLimit  12

Optimize a model with 59850 rows, 780060 columns and 2382786 nonzeros (Max)
Model fingerprint: 0xb6862c23
Model has 742260 linear objective coefficients
Variable types: 15060 continuous, 765000 integer (765000 binary)
Coefficient statistics:
  Matrix range     [3e-05, 1e+05]
  Objective range  [3e+01, 3e+03]
  Bounds range     [1e+00, 1e+05]
  RHS range        [8e-03, 1e+05]

Presolve removed 30776 rows and 563882 columns
Presolve time: 1.45s
Presolved: 29074 rows, 216178 columns, 682984 nonzeros
Variable types: 7270 continuous, 208908 integer (208908 binary)
Found heuristic solution: objective -3.82455e+08
Found heuristic solution: objective -3.81637e+08
Deterministic concurrent LP optimizer: primal simplex, dual simplex, and barrier
Showing barrier log only...

Root barrier log...

Ordering time: 0.38s

Barrier statistics:
 AA' NZ     : 3.806e+05
 Factor NZ  : 2.540e+06 (roughly 120 MB of memory)
 Factor Ops : 3.728e+08 (less than 1 second per iteration)
 Threads    : 18

                  Objective                Residual
Iter       Primal          Dual         Primal    Dual     Compl     Time
   0  -1.30524124e+11  1.76904520e+09  1.94e+06 2.48e+03  2.91e+06     3s
   1  -6.97676145e+10  2.39989864e+09  1.04e+06 3.91e-11  1.62e+06     3s
   2  -2.82840212e+10  2.17087750e+09  4.22e+05 1.27e-10  6.65e+05     3s
   3  -4.57855696e+09  2.06780731e+09  6.99e+04 1.00e-10  1.16e+05     3s
   4  -8.32007717e+08  1.93289442e+09  1.44e+04 8.90e-11  2.68e+04     3s
   5   1.30110020e+08  1.07951891e+09  1.44e+02 5.75e-11  2.30e+03     3s
   6   1.37843466e+08  1.56182325e+08  1.81e-02 8.70e-11  4.11e+01     3s
   7   1.37891690e+08  1.42049518e+08  6.55e-11 8.68e-10  9.31e+00     3s
   8   1.37990745e+08  1.39317207e+08  5.64e-11 5.09e-10  2.97e+00     3s
   9   1.38097402e+08  1.38451383e+08  6.91e-11 4.38e-10  7.92e-01     3s
  10   1.38121029e+08  1.38271857e+08  4.55e-11 5.01e-10  3.38e-01     3s
  11   1.38137711e+08  1.38192666e+08  4.73e-11 4.87e-10  1.23e-01     3s
  12   1.38139667e+08  1.38172048e+08  3.46e-11 6.49e-10  7.25e-02     3s
  13   1.38142985e+08  1.38155949e+08  7.28e-11 6.68e-10  2.90e-02     3s
  14   1.38144226e+08  1.38150488e+08  6.18e-11 6.29e-10  1.40e-02     3s
  15   1.38145043e+08  1.38147837e+08  2.73e-11 6.19e-10  6.25e-03     4s
  16   1.38145337e+08  1.38146686e+08  2.73e-11 6.20e-10  3.02e-03     4s
  17   1.38145493e+08  1.38146237e+08  3.46e-11 5.76e-10  1.67e-03     4s
  18   1.38145598e+08  1.38146061e+08  3.09e-11 6.04e-10  1.04e-03     4s
  19   1.38145622e+08  1.38145903e+08  3.64e-11 6.53e-10  6.29e-04     4s
  20   1.38145631e+08  1.38145810e+08  3.46e-11 6.71e-10  4.02e-04     4s
  21   1.38145673e+08  1.38145750e+08  7.25e-10 5.91e-10  1.71e-04     4s
  22   1.38145683e+08  1.38145709e+08  4.59e-10 5.12e-10  5.83e-05     4s
  23   1.38145689e+08  1.38145701e+08  2.84e-10 4.09e-10  2.83e-05     4s
  24   1.38145699e+08  1.38145700e+08  2.29e-09 3.99e-10  1.83e-06     4s
  25   1.38145700e+08  1.38145700e+08  1.91e-10 4.44e-10  1.28e-08     4s
  26   1.38145700e+08  1.38145700e+08  1.75e-09 4.47e-10  2.35e-12     4s

Barrier solved model in 26 iterations and 4.02 seconds (5.10 work units)
Optimal objective 1.38145700e+08


Root simplex log...

Iteration    Objective       Primal Inf.    Dual Inf.      Time
   16919    1.3814570e+08   0.000000e+00   1.343192e+08      5s
   21532    1.3814570e+08   0.000000e+00   0.000000e+00      6s
Crossover time: 1.75 seconds (2.31 work units)
Concurrent spin time: 0.00s

Solved with barrier

Root relaxation: objective 1.381457e+08, 21532 iterations, 3.86 seconds (4.44 work units)

    Nodes    |    Current Node    |     Objective Bounds      |     Work
 Expl Unexpl |  Obj  Depth IntInf | Incumbent    BestBd   Gap | It/Node Time

     0     0 1.3815e+08    0 2433 -3.816e+08 1.3815e+08   136%     -    6s
H    0     0                    -3.28991e+08 1.3815e+08   142%     -    8s
H    0     0                    -2.65050e+08 1.3815e+08   152%     -    8s
H    0     0                    -1.49840e+08 1.3815e+08   192%     -    8s
H    0     0                    -1.42003e+08 1.3815e+08   197%     -   11s
H    0     0                    -1.42002e+08 1.3815e+08   197%     -   11s
H    0     0                    -1.14551e+08 1.3815e+08   221%     -   12s
H    0     0                    -1.02384e+08 1.3815e+08   235%     -   14s
H    0     0                    -4.10662e+07 1.3815e+08   436%     -   14s
H    0     0                    -6589442.296 1.3815e+08  2196%     -   16s
H    0     0                    5.111183e+07 1.3815e+08   170%     -   16s
H    0     0                    5.561117e+07 1.3815e+08   148%     -   17s
H    0     0                    6.918440e+07 1.3815e+08   100%     -   17s
H    0     0                    9.759594e+07 1.3815e+08  41.5%     -   18s
H    0     0                    1.380964e+08 1.3815e+08  0.04%     -   18s
H    0     0                    1.380982e+08 1.3815e+08  0.03%     -   19s
H    0     0                    1.380999e+08 1.3815e+08  0.03%     -   19s
     0     0 1.3815e+08    0 3300 1.3810e+08 1.3815e+08  0.03%     -   21s
H    0     0                    1.381028e+08 1.3815e+08  0.03%     -   22s
H    0     0                    1.381082e+08 1.3815e+08  0.03%     -   24s
H    0     0                    1.381094e+08 1.3815e+08  0.03%     -   24s
H    0     0                    1.381097e+08 1.3815e+08  0.03%     -   25s
H    0     0                    1.381105e+08 1.3815e+08  0.03%     -   27s
H    0     0                    1.381105e+08 1.3815e+08  0.03%     -   27s
H    0     0                    1.381107e+08 1.3815e+08  0.03%     -   28s
     0     0 1.3815e+08    0 3253 1.3811e+08 1.3815e+08  0.03%     -   31s
     0     0 1.3815e+08    0 3253 1.3811e+08 1.3815e+08  0.03%     -   31s
     0     0 1.3815e+08    0 2465 1.3811e+08 1.3815e+08  0.03%     -   32s
     0     0 1.3815e+08    0 2992 1.3811e+08 1.3815e+08  0.03%     -   34s
     0     0 1.3815e+08    0 3157 1.3811e+08 1.3815e+08  0.03%     -   37s
     0     0 1.3815e+08    0 3157 1.3811e+08 1.3815e+08  0.03%     -   38s
     0     0 1.3815e+08    0 3066 1.3811e+08 1.3815e+08  0.03%     -   39s
H    0     0                    1.381120e+08 1.3815e+08  0.02%     -   57s
H    0     0                    1.381128e+08 1.3815e+08  0.02%     -   59s
H    0     0                    1.381129e+08 1.3815e+08  0.02%     -   65s
H    0     0                    1.381130e+08 1.3815e+08  0.02%     -   97s
H    0     0                    1.381130e+08 1.3815e+08  0.02%     -   97s
H    0     0                    1.381136e+08 1.3815e+08  0.02%     -   97s
     0     2 1.3815e+08    0 3057 1.3811e+08 1.3815e+08  0.02%     -  101s
H    3     8                    1.381144e+08 1.3815e+08  0.02%   846  108s
H    7    16                    1.381157e+08 1.3815e+08  0.02%  1307  117s
    15    32 1.3815e+08    4 2878 1.3812e+08 1.3815e+08  0.02%  1380  140s
    31    52 1.3815e+08    5 3085 1.3812e+08 1.3815e+08  0.02%  2052  151s
    51    72 1.3815e+08    6 3028 1.3812e+08 1.3815e+08  0.02%  1556  176s
H   52    72                    1.381158e+08 1.3815e+08  0.02%  1526  176s
H   53    72                    1.381170e+08 1.3815e+08  0.02%  1504  176s
    71    92 1.3815e+08    7 2977 1.3812e+08 1.3815e+08  0.02%  1241  223s
H   84    92                    1.381174e+08 1.3815e+08  0.02%  1162  223s
H   87    92                    1.381184e+08 1.3815e+08  0.02%  1164  223s
    91   377 1.3815e+08    8 3018 1.3812e+08 1.3815e+08  0.02%  1154  331s
